row=9;
Board=[|0,0,10,2,0,3,1,8,7,5|0,0,0,3,0,0,9,0,6,1|8,10,6,0,0,2,0,0,9,5|0,4,0,10,5,6,7,0,8,3|7,0,0,0,9,0,10,4,0,1|0,0,7,10,0,0,6,0,0,5|7,2,9,0,8,0,0,0,0,10|9,4,1,3,0,7,6,0,8,0|0,3,0,6,8,0,9,0,10,2|];
bottom=[12002256,153600,453600,756000,1036800,645120,1837080,143360
,26127360,37500]